MARKOV
900
 2 2 2 2 2 2 2 2 2 2 2 2 2 2 2 2 2 2 2 2 2 2 2 2 2 2 2 2 2 2 2 2 2 2 2 2 2 2 2 2 2 2 2 2 2 2 2 2 2 2 2 2 2 2 2 2 2 2 2 2 2 2 2 2 2 2 2 2 2 2 2 2 2 2 2 2 2 2 2 2 2 2 2 2 2 2 2 2 2 2 2 2 2 2 2 2 2 2 2 2 2 2 2 2 2 2 2 2 2 2 2 2 2 2 2 2 2 2 2 2 2 2 2 2 2 2 2 2 2 2 2 2 2 2 2 2 2 2 2 2 2 2 2 2 2 2 2 2 2 2 2 2 2 2 2 2 2 2 2 2 2 2 2 2 2 2 2 2 2 2 2 2 2 2 2 2 2 2 2 2 2 2 2 2 2 2 2 2 2 2 2 2 2 2 2 2 2 2 2 2 2 2 2 2 2 2 2 2 2 2 2 2 2 2 2 2 2 2 2 2 2 2 2 2 2 2 2 2 2 2 2 2 2 2 2 2 2 2 2 2 2 2 2 2 2 2 2 2 2 2 2 2 2 2 2 2 2 2 2 2 2 2 2 2 2 2 2 2 2 2 2 2 2 2 2 2 2 2 2 2 2 2 2 2 2 2 2 2 2 2 2 2 2 2 2 2 2 2 2 2 2 2 2 2 2 2 2 2 2 2 2 2 2 2 2 2 2 2 2 2 2 2 2 2 2 2 2 2 2 2 2 2 2 2 2 2 2 2 2 2 2 2 2 2 2 2 2 2 2 2 2 2 2 2 2 2 2 2 2 2 2 2 2 2 2 2 2 2 2 2 2 2 2 2 2 2 2 2 2 2 2 2 2 2 2 2 2 2 2 2 2 2 2 2 2 2 2 2 2 2 2 2 2 2 2 2 2 2 2 2 2 2 2 2 2 2 2 2 2 2 2 2 2 2 2 2 2 2 2 2 2 2 2 2 2 2 2 2 2 2 2 2 2 2 2 2 2 2 2 2 2 2 2 2 2 2 2 2 2 2 2 2 2 2 2 2 2 2 2 2 2 2 2 2 2 2 2 2 2 2 2 2 2 2 2 2 2 2 2 2 2 2 2 2 2 2 2 2 2 2 2 2 2 2 2 2 2 2 2 2 2 2 2 2 2 2 2 2 2 2 2 2 2 2 2 2 2 2 2 2 2 2 2 2 2 2 2 2 2 2 2 2 2 2 2 2 2 2 2 2 2 2 2 2 2 2 2 2 2 2 2 2 2 2 2 2 2 2 2 2 2 2 2 2 2 2 2 2 2 2 2 2 2 2 2 2 2 2 2 2 2 2 2 2 2 2 2 2 2 2 2 2 2 2 2 2 2 2 2 2 2 2 2 2 2 2 2 2 2 2 2 2 2 2 2 2 2 2 2 2 2 2 2 2 2 2 2 2 2 2 2 2 2 2 2 2 2 2 2 2 2 2 2 2 2 2 2 2 2 2 2 2 2 2 2 2 2 2 2 2 2 2 2 2 2 2 2 2 2 2 2 2 2 2 2 2 2 2 2 2 2 2 2 2 2 2 2 2 2 2 2 2 2 2 2 2 2 2 2 2 2 2 2 2 2 2 2 2 2 2 2 2 2 2 2 2 2 2 2 2 2 2 2 2 2 2 2 2 2 2 2 2 2 2 2 2 2 2 2 2 2 2 2 2 2 2 2 2 2 2 2 2 2 2 2 2 2 2 2 2 2 2 2 2 2 2 2 2 2 2 2 2 2 2 2 2 2 2 2 2 2 2 2 2 2 2 2 2 2 2 2 2 2 2 2 2 2 2 2 2 2 2 2 2 2 2 2 2 2 2 2 2 2 2 2 2 2 2 2 2 2 2 2 2 2 2 2 2 2 2 2 2 2 2 2 2 2 2 2 2 2 2 2 2 2 2 2 2 2 2 2 2 2 2 2 2 2 2 2 2 2 2 2 2 2 2 2 2 2 2 2 2 2 2 2 2 2 2 2 2 2 2 2 2 2 2 2 2 2 2
916
3	133 300 899 
3	83 898 899 
3	23 897 898 
3	67 896 897 
3	260 895 896 
3	40 894 895 
3	95 893 894 
3	130 892 893 
3	2 891 892 
3	275 890 891 
3	91 889 890 
3	236 888 889 
3	264 887 888 
3	21 886 887 
3	242 885 886 
3	110 884 885 
3	51 883 884 
3	4 882 883 
3	244 881 882 
3	132 880 881 
3	98 879 880 
3	231 878 879 
3	15 877 878 
3	270 876 877 
3	97 875 876 
3	44 874 875 
3	141 873 874 
3	213 872 873 
3	159 871 872 
3	60 870 871 
3	65 869 870 
3	36 868 869 
3	281 867 868 
3	258 866 867 
3	220 865 866 
3	279 864 865 
3	252 863 864 
3	190 862 863 
3	155 861 862 
1	861 
3	68 176 860 
3	154 859 860 
3	88 858 859 
3	2 857 858 
3	173 856 857 
3	108 855 856 
3	181 854 855 
3	52 853 854 
3	92 852 853 
3	206 851 852 
3	222 850 851 
3	177 849 850 
3	285 848 849 
3	77 847 848 
3	49 846 847 
3	289 845 846 
3	89 844 845 
3	66 843 844 
3	246 842 843 
3	250 841 842 
3	135 840 841 
3	6 839 840 
3	75 838 839 
3	211 837 838 
3	81 836 837 
3	221 835 836 
3	139 834 835 
3	59 833 834 
1	833 
3	58 90 832 
3	100 831 832 
3	191 830 831 
3	219 829 830 
3	131 828 829 
3	25 827 828 
3	297 826 827 
3	268 825 826 
3	217 824 825 
3	287 823 824 
3	127 822 823 
3	235 821 822 
3	17 820 821 
3	150 819 820 
3	195 818 819 
3	222 817 818 
3	169 816 817 
1	816 
3	58 117 815 
3	238 814 815 
3	152 813 814 
3	115 812 813 
3	118 811 812 
3	25 810 811 
3	217 809 810 
3	127 808 809 
3	62 807 808 
3	235 806 807 
3	52 805 806 
3	150 804 805 
3	169 803 804 
3	243 802 803 
3	182 801 802 
3	34 800 801 
3	46 799 800 
3	90 798 799 
3	123 797 798 
3	113 796 797 
3	53 795 796 
3	116 794 795 
3	121 793 794 
3	13 792 793 
3	290 791 792 
3	43 790 791 
3	226 789 790 
3	297 788 789 
3	239 787 788 
3	82 786 787 
3	80 785 786 
3	12 784 785 
3	175 783 784 
3	24 782 783 
3	261 781 782 
3	17 780 781 
3	59 779 780 
3	266 778 779 
3	68 777 778 
3	125 776 777 
3	100 775 776 
3	2 774 775 
3	216 773 774 
3	280 772 773 
3	191 771 772 
3	39 770 771 
3	268 769 770 
3	29 768 769 
3	42 767 768 
3	70 766 767 
3	11 765 766 
3	195 764 765 
3	201 763 764 
3	222 762 763 
3	188 761 762 
3	5 760 761 
3	106 759 760 
3	1 758 759 
3	153 757 758 
3	69 756 757 
3	104 755 756 
3	203 754 755 
3	48 753 754 
3	219 752 753 
3	35 751 752 
3	287 750 751 
3	185 749 750 
3	114 748 749 
3	199 747 748 
3	292 746 747 
3	237 745 746 
1	745 
3	145 227 744 
3	117 743 744 
3	0 742 743 
3	233 741 742 
3	197 740 741 
3	277 739 740 
3	144 738 739 
3	204 737 738 
3	45 736 737 
3	299 735 736 
3	295 734 735 
3	265 733 734 
3	282 732 733 
3	285 731 732 
3	99 730 731 
3	226 729 730 
3	189 728 729 
3	80 727 728 
3	12 726 727 
3	255 725 726 
3	225 724 725 
3	274 723 724 
3	18 722 723 
3	248 721 722 
3	212 720 721 
3	283 719 720 
3	162 718 719 
3	84 717 718 
3	180 716 717 
3	288 715 716 
3	251 714 715 
3	124 713 714 
3	245 712 713 
3	105 711 712 
3	11 710 711 
3	170 709 710 
3	200 708 709 
3	161 707 708 
3	174 706 707 
3	262 705 706 
3	267 704 705 
3	114 703 704 
3	160 702 703 
3	232 701 702 
3	210 700 701 
3	254 699 700 
3	172 698 699 
3	115 697 698 
3	224 696 697 
3	118 695 696 
3	25 694 695 
3	28 693 694 
3	108 692 693 
3	119 691 692 
3	276 690 691 
3	208 689 690 
3	179 688 689 
3	137 687 688 
3	196 686 687 
3	64 685 686 
3	290 684 685 
3	9 683 684 
3	256 682 683 
3	187 681 682 
3	205 680 681 
3	163 679 680 
3	175 678 679 
3	207 677 678 
3	294 676 677 
3	102 675 676 
3	157 674 675 
3	71 673 674 
3	234 672 673 
3	229 671 672 
3	14 670 671 
3	10 669 670 
3	55 668 669 
3	135 667 668 
3	253 666 667 
3	128 665 666 
3	185 664 665 
3	184 663 664 
3	194 662 663 
3	63 661 662 
3	165 660 661 
1	660 
3	101 289 659 
1	659 
3	74 87 658 
3	8 657 658 
3	129 656 657 
3	285 655 656 
3	19 654 655 
3	94 653 654 
3	192 652 653 
3	102 651 652 
3	263 650 651 
3	143 649 650 
3	289 648 649 
3	128 647 648 
3	108 646 647 
3	7 645 646 
3	50 644 645 
3	61 643 644 
3	207 642 643 
3	293 641 642 
1	641 
3	117 145 640 
3	233 639 640 
3	0 638 639 
3	197 637 638 
3	172 636 637 
3	224 635 636 
3	204 634 635 
3	127 633 634 
3	119 632 633 
3	108 631 632 
3	50 630 631 
3	295 629 630 
3	276 628 629 
3	209 627 628 
3	30 626 627 
3	150 625 626 
3	259 624 625 
3	86 623 624 
3	282 622 623 
3	208 621 622 
3	179 620 621 
3	285 619 620 
3	77 618 619 
3	99 617 618 
3	192 616 617 
3	196 615 616 
3	64 614 615 
3	187 613 614 
3	255 612 613 
3	207 611 612 
3	274 610 611 
3	18 609 610 
3	248 608 609 
3	212 607 608 
3	129 606 607 
3	273 605 606 
3	162 604 605 
3	157 603 604 
3	251 602 603 
3	105 601 602 
3	234 600 601 
3	229 599 600 
3	14 598 599 
3	10 597 598 
3	8 596 597 
3	55 595 596 
3	94 594 595 
3	257 593 594 
3	164 592 593 
3	174 591 592 
3	289 590 591 
3	135 589 590 
3	262 588 589 
3	128 587 588 
3	184 586 587 
3	194 585 586 
3	237 584 585 
3	165 583 584 
1	583 
3	7 101 582 
3	289 581 582 
3	30 580 581 
1	580 
3	117 296 579 
3	115 578 579 
3	78 577 578 
3	118 576 577 
3	127 575 576 
3	171 574 575 
3	29 573 574 
3	93 572 573 
3	201 571 572 
3	195 570 571 
3	150 569 570 
3	46 568 569 
3	20 567 568 
3	38 566 567 
3	123 565 566 
3	241 564 565 
3	116 563 564 
3	122 562 563 
3	290 561 562 
3	156 560 561 
3	226 559 560 
3	239 558 559 
3	287 557 558 
3	114 556 557 
3	112 555 556 
3	178 554 555 
3	266 553 554 
1	553 
3	74 87 552 
3	8 551 552 
3	129 550 551 
3	285 549 550 
3	19 548 549 
3	94 547 548 
3	102 546 547 
3	192 545 546 
3	263 544 545 
3	143 543 544 
3	289 542 543 
3	128 541 542 
3	108 540 541 
3	7 539 540 
3	50 538 539 
3	61 537 538 
3	207 536 537 
3	293 535 536 
3	259 534 535 
1	534 
3	96 272 533 
3	103 532 533 
3	136 531 532 
3	120 530 531 
3	167 529 530 
3	298 528 529 
3	121 527 528 
3	109 526 527 
3	216 525 526 
3	142 524 525 
3	166 523 524 
3	107 522 523 
3	31 521 522 
3	56 520 521 
3	37 519 520 
1	519 
3	86 257 518 
3	224 517 518 
3	295 516 517 
1	516 
3	117 145 515 
3	0 514 515 
3	233 513 514 
3	197 512 513 
3	172 511 512 
3	224 510 511 
3	204 509 510 
3	108 508 509 
3	119 507 508 
3	295 506 507 
3	276 505 506 
3	208 504 505 
3	282 503 504 
3	179 502 503 
3	285 501 502 
3	99 500 501 
3	196 499 500 
3	64 498 499 
3	187 497 498 
3	255 496 497 
3	207 495 496 
3	274 494 495 
3	18 493 494 
3	248 492 493 
3	212 491 492 
3	157 490 491 
3	251 489 490 
3	234 488 489 
3	105 487 488 
3	229 486 487 
3	14 485 486 
3	10 484 485 
3	55 483 484 
3	174 482 483 
3	135 481 482 
3	262 480 481 
3	128 479 480 
3	184 478 479 
3	194 477 478 
3	165 476 477 
1	476 
3	227 233 475 
3	72 474 475 
3	95 473 474 
3	264 472 473 
3	127 471 472 
3	45 470 471 
3	51 469 470 
3	295 468 469 
3	97 467 468 
3	282 466 467 
3	198 465 466 
3	168 464 465 
3	121 463 464 
3	36 462 463 
3	149 461 462 
3	138 460 461 
3	27 459 460 
3	228 458 459 
3	255 457 458 
3	274 456 457 
3	248 455 456 
3	212 454 455 
3	162 453 454 
3	273 452 453 
3	260 451 452 
3	84 450 451 
3	268 449 450 
3	251 448 449 
3	101 447 448 
3	124 446 447 
3	106 445 446 
3	257 444 445 
3	94 443 444 
3	57 442 443 
3	16 441 442 
3	114 440 441 
3	160 439 440 
3	252 438 439 
3	115 437 438 
3	263 436 437 
3	215 435 436 
3	41 434 435 
3	76 433 434 
3	224 432 433 
3	118 431 432 
3	291 430 431 
3	91 429 430 
3	79 428 429 
3	119 427 428 
3	52 426 427 
3	276 425 426 
3	150 424 425 
3	169 423 424 
3	269 422 423 
3	86 421 422 
3	87 420 421 
3	179 419 420 
3	77 418 419 
3	13 417 418 
3	151 416 417 
3	65 415 416 
3	64 414 415 
3	284 413 414 
3	247 412 413 
3	239 411 412 
3	205 410 411 
3	24 409 410 
3	61 408 409 
3	7 407 408 
3	207 406 407 
3	59 405 406 
3	158 404 405 
3	74 403 404 
3	214 402 403 
3	22 401 402 
3	102 400 401 
3	134 399 400 
3	242 398 399 
3	271 397 398 
3	229 396 397 
3	93 395 396 
3	10 394 395 
3	186 393 394 
3	69 392 393 
3	60 391 392 
3	183 390 391 
3	135 389 390 
3	128 388 389 
3	278 387 388 
3	111 386 387 
3	237 385 386 
3	202 384 385 
3	145 383 384 
3	148 382 383 
3	117 381 382 
3	58 380 381 
3	0 379 380 
3	197 378 379 
3	277 377 378 
3	67 376 377 
3	40 375 376 
3	204 374 375 
3	275 373 374 
3	50 372 373 
3	235 371 372 
3	286 370 371 
3	30 369 370 
3	259 368 369 
3	285 367 368 
3	192 366 367 
3	99 365 366 
3	226 364 365 
3	140 363 364 
3	261 362 363 
3	223 361 362 
3	266 360 361 
3	18 359 360 
3	73 358 359 
3	130 357 358 
3	218 356 357 
3	288 355 356 
3	193 354 355 
3	33 353 354 
3	146 352 353 
3	245 351 352 
3	105 350 351 
3	170 349 350 
3	222 348 349 
3	200 347 348 
3	164 346 347 
3	161 345 346 
3	174 344 345 
3	143 343 344 
3	85 342 343 
3	289 341 342 
3	220 340 341 
3	262 339 340 
3	232 338 339 
3	126 337 338 
3	249 336 337 
3	254 335 336 
3	147 334 335 
3	172 333 334 
3	296 332 333 
3	230 331 332 
3	3 330 331 
3	25 329 330 
3	32 328 329 
3	28 327 328 
3	108 326 327 
3	209 325 326 
3	270 324 325 
3	208 323 324 
3	19 322 323 
3	196 321 322 
3	290 320 321 
3	240 319 320 
3	187 318 319 
3	163 317 318 
3	129 316 317 
3	294 315 316 
3	157 314 315 
3	88 313 314 
3	54 312 313 
3	47 311 312 
3	234 310 311 
3	15 309 310 
3	14 308 309 
3	8 307 308 
3	55 306 307 
3	26 305 306 
3	184 304 305 
3	194 303 304 
3	63 302 303 
3	165 301 302 
1	301 
1	227 
1	83 
1	233 
1	154 
1	152 
1	72 
1	95 
1	217 
1	264 
1	127 
1	45 
1	62 
1	51 
1	295 
1	265 
1	182 
1	243 
1	97 
1	282 
1	198 
1	168 
1	116 
1	121 
1	36 
1	149 
1	138 
1	142 
1	27 
1	255 
1	228 
1	56 
1	225 
1	274 
1	248 
1	212 
1	162 
1	273 
1	260 
1	84 
1	39 
1	268 
1	251 
1	101 
1	110 
1	124 
1	11 
1	195 
1	177 
1	153 
1	106 
1	203 
1	257 
1	94 
1	57 
1	16 
1	258 
1	287 
1	267 
1	114 
1	292 
1	160 
1	252 
1	210 
1	293 
1	272 
1	23 
1	115 
1	263 
1	215 
1	41 
1	76 
1	224 
1	118 
1	291 
1	91 
1	79 
1	119 
1	52 
1	244 
1	98 
1	276 
1	150 
1	169 
1	269 
1	86 
1	87 
1	38 
1	113 
1	179 
1	77 
1	167 
1	13 
1	151 
1	64 
1	65 
1	284 
1	247 
1	250 
1	239 
1	256 
1	9 
1	82 
1	205 
1	24 
1	175 
1	81 
1	7 
1	61 
1	207 
1	107 
1	221 
1	59 
1	158 
1	300 
1	74 
1	68 
1	103 
1	214 
1	125 
1	102 
1	22 
1	280 
1	173 
1	171 
1	242 
1	134 
1	42 
1	271 
1	93 
1	229 
1	188 
1	5 
1	10 
1	186 
1	69 
1	213 
1	60 
1	156 
1	183 
1	35 
1	135 
1	278 
1	128 
1	111 
1	237 
1	31 
1	202 
1	133 
1	145 
1	148 
1	117 
1	0 
1	58 
1	197 
1	277 
1	120 
1	67 
1	78 
1	144 
1	40 
1	109 
1	275 
1	204 
1	299 
1	50 
1	235 
1	286 
1	132 
1	30 
1	259 
1	46 
1	20 
1	90 
1	123 
1	285 
1	192 
1	99 
1	43 
1	226 
1	189 
1	281 
1	297 
1	6 
1	80 
1	12 
1	211 
1	140 
1	261 
1	178 
1	223 
1	155 
1	266 
1	18 
1	283 
1	73 
1	180 
1	218 
1	130 
1	288 
1	193 
1	29 
1	146 
1	33 
1	181 
1	245 
1	105 
1	206 
1	170 
1	222 
1	201 
1	37 
1	200 
1	96 
1	104 
1	48 
1	164 
1	161 
1	159 
1	85 
1	143 
1	174 
1	289 
1	219 
1	220 
1	75 
1	262 
1	232 
1	126 
1	139 
1	254 
1	249 
1	147 
1	172 
1	238 
1	296 
1	230 
1	3 
1	25 
1	32 
1	28 
1	108 
1	4 
1	92 
1	231 
1	209 
1	270 
1	34 
1	208 
1	53 
1	19 
1	44 
1	137 
1	122 
1	290 
1	196 
1	89 
1	240 
1	246 
1	131 
1	187 
1	163 
1	279 
1	166 
1	190 
1	17 
1	176 
1	294 
1	129 
1	298 
1	157 
1	100 
1	88 
1	71 
1	216 
1	2 
1	54 
1	191 
1	236 
1	21 
1	47 
1	70 
1	234 
1	15 
1	14 
1	8 
1	136 
1	241 
1	1 
1	55 
1	141 
1	49 
1	66 
1	253 
1	26 
1	185 
1	199 
1	184 
1	194 
1	112 
1	63 
1	165 
0	

8
 1 0 0.8 0.2 0 1 0 1
8
 1 0 0 1 0.5 0 0.5 1
8
 1 0 0 1 0.5 0 0.5 1
8
 1 0 0 1 0.8 0 0.2 1
8
 1 0 0 1 0.5 0 0.5 1
8
 1 0 0 1 0.5 0 0.5 1
8
 1 0 0 1 0.4 0 0.6 1
8
 1 0 0 1 0.3 0 0.7 1
8
 1 0 0 1 0.39 0 0.61 1
8
 1 0 0 1 0.4 0 0.6 1
8
 1 0 0 1 0.5 0 0.5 1
8
 1 0 0 1 0.89 0 0.11 1
8
 1 0 0 1 0.5 0 0.5 1
8
 1 0 0 1 0.01 0 0.99 1
8
 1 0 0 1 0.5 0 0.5 1
8
 1 0 0 1 0.7 0 0.3 1
8
 1 0 0 1 0.5 0 0.5 1
8
 1 0 0 1 0.1 0 0.9 1
8
 1 0 0 1 0.5 0 0.5 1
8
 1 0 0 1 0.89 0 0.11 1
8
 1 0 0 1 0 0 1 1
8
 1 0 0 1 0.5 0 0.5 1
8
 1 0 0 1 0.5 0 0.5 1
8
 1 0 0 1 0.5 0 0.5 1
8
 1 0 0 1 0.5 0 0.5 1
8
 1 0 0 1 0.1 0 0.9 1
8
 1 0 0 1 0.8 0 0.2 1
8
 1 0 0 1 0.7 0 0.3 1
8
 1 0 0 1 0.5 0 0.5 1
8
 1 0 0 1 0.8 0 0.2 1
8
 1 0 0 1 0.5 0 0.5 1
8
 1 0 0 1 0.4 0 0.6 1
8
 1 0 0 1 0.5 0 0.5 1
8
 1 0 0 1 0.5 0 0.5 1
8
 1 0 0 1 0.5 0 0.5 1
8
 1 0 0 1 0.7 0 0.3 1
8
 1 0 0 1 0.5 0 0.5 1
8
 1 0 0 1 0 0 1 1
8
 1 0 0 1 0.9 0 0.1 1
2
 0.03 1
8
 1 0 0.6 0.4 0.5 0.5 0.3 0.7
8
 1 0 0 1 0.6 0 0.4 1
8
 1 0 0 1 0.8 0 0.2 1
8
 1 0 0 1 0.5 0 0.5 1
8
 1 0 0 1 0.8 0 0.2 1
8
 1 0 0 1 0.5 0 0.5 1
8
 1 0 0 1 0.4 0 0.6 1
8
 1 0 0 1 0.5 0 0.5 1
8
 1 0 0 1 0.7 0 0.3 1
8
 1 0 0 1 0.6 0 0.4 1
8
 1 0 0 1 0.5 0 0.5 1
8
 1 0 0 1 0.7 0 0.3 1
8
 1 0 0 1 0.5 0 0.5 1
8
 1 0 0 1 0.6 0 0.4 1
8
 1 0 0 1 0.1 0 0.9 1
8
 1 0 0 1 0.7 0 0.3 1
8
 1 0 0 1 0.5 0 0.5 1
8
 1 0 0 1 0.6 0 0.4 1
8
 1 0 0 1 0.6 0 0.4 1
8
 1 0 0 1 0.5 0 0.5 1
8
 1 0 0 1 0.5 0 0.5 1
8
 1 0 0 1 0.4 0 0.6 1
8
 1 0 0 1 0 0 1 1
8
 1 0 0 1 0.4 0 0.6 1
8
 1 0 0 1 0.4 0 0.6 1
8
 1 0 0 1 0.3 0 0.7 1
8
 1 0 0 1 0 0 1 1
8
 1 0 0 1 0.5 0 0.5 1
2
 0.03 1
8
 1 0 0.1 0.9 0.5 0.5 0.05 0.95
8
 1 0 0 1 0.5 0 0.5 1
8
 1 0 0 1 0.5 0 0.5 1
8
 1 0 0 1 0.05 0 0.95 1
8
 1 0 0 1 0.5 0 0.5 1
8
 1 0 0 1 0.5 0 0.5 1
8
 1 0 0 1 0.2 0 0.8 1
8
 1 0 0 1 0.5 0 0.5 1
8
 1 0 0 1 0.5 0 0.5 1
8
 1 0 0 1 0.05 0 0.95 1
8
 1 0 0 1 0.01 0 0.99 1
8
 1 0 0 1 0.5 0 0.5 1
8
 1 0 0 1 0.3 0 0.7 1
8
 1 0 0 1 0.01 0 0.99 1
8
 1 0 0 1 0 0 1 1
8
 1 0 0 1 0.5 0 0.5 1
8
 1 0 0 1 0.2 0 0.8 1
2
 0.03 1
8
 1 0 0.1 0.9 0.5 0.5 0.05 0.95
8
 1 0 0 1 0.5 0 0.5 1
8
 1 0 0 1 0.1 0 0.9 1
8
 1 0 0 1 0.1 0 0.9 1
8
 1 0 0 1 0.1 0 0.9 1
8
 1 0 0 1 0.09 0 0.91 1
8
 1 0 0 1 0.5 0 0.5 1
8
 1 0 0 1 0.01 0 0.99 1
8
 1 0 0 1 0.95 0 0.05 1
8
 1 0 0 1 0.5 0 0.5 1
8
 1 0 0 1 0.19 0 0.81 1
8
 1 0 0 1 0.01 0 0.99 1
8
 1 0 0 1 0.01 0 0.99 1
8
 1 0 0 1 0.09 0 0.91 1
8
 1 0 0 1 0.5 0 0.5 1
8
 1 0 0 1 0.01 0 0.99 1
8
 1 0 0 1 0.1 0 0.9 1
8
 1 0 0 1 0.05 0 0.95 1
8
 1 0 0 1 0.1 0 0.9 1
8
 1 0 0 1 0.19 0 0.81 1
8
 1 0 0 1 0.19 0 0.81 1
8
 1 0 0 1 0.1 0 0.9 1
8
 1 0 0 1 0.05 0 0.95 1
8
 1 0 0 1 0.5 0 0.5 1
8
 1 0 0 1 0.05 0 0.95 1
8
 1 0 0 1 0.01 0 0.99 1
8
 1 0 0 1 0.5 0 0.5 1
8
 1 0 0 1 0.2 0 0.8 1
8
 1 0 0 1 0.1 0 0.9 1
8
 1 0 0 1 0.5 0 0.5 1
8
 1 0 0 1 0.5 0 0.5 1
8
 1 0 0 1 0.95 0 0.05 1
8
 1 0 0 1 0.89 0 0.11 1
8
 1 0 0 1 0.5 0 0.5 1
8
 1 0 0 1 0.5 0 0.5 1
8
 1 0 0 1 0.01 0 0.99 1
8
 1 0 0 1 0.5 0 0.5 1
8
 1 0 0 1 0.2 0 0.8 1
8
 1 0 0 1 0.5 0 0.5 1
8
 1 0 0 1 0.5 0 0.5 1
8
 1 0 0 1 0.09 0 0.91 1
8
 1 0 0 1 0.19 0 0.81 1
8
 1 0 0 1 0.5 0 0.5 1
8
 1 0 0 1 0.09 0 0.91 1
8
 1 0 0 1 0.5 0 0.5 1
8
 1 0 0 1 0.59 0 0.41 1
8
 1 0 0 1 0.5 0 0.5 1
8
 1 0 0 1 0.1 0 0.9 1
8
 1 0 0 1 0.1 0 0.9 1
8
 1 0 0 1 0.01 0 0.99 1
8
 1 0 0 1 0.3 0 0.7 1
8
 1 0 0 1 0 0 1 1
8
 1 0 0 1 0.1 0 0.9 1
8
 1 0 0 1 0.5 0 0.5 1
8
 1 0 0 1 0.5 0 0.5 1
8
 1 0 0 1 0.19 0 0.81 1
8
 1 0 0 1 0.5 0 0.5 1
8
 1 0 0 1 0.19 0 0.81 1
8
 1 0 0 1 0.09 0 0.91 1
8
 1 0 0 1 0.1 0 0.9 1
8
 1 0 0 1 0.5 0 0.5 1
8
 1 0 0 1 0.5 0 0.5 1
8
 1 0 0 1 0.59 0 0.41 1
8
 1 0 0 1 0.05 0 0.95 1
8
 1 0 0 1 0.19 0 0.81 1
8
 1 0 0 1 0.05 0 0.95 1
8
 1 0 0 1 0.2 0 0.8 1
8
 1 0 0 1 0.1 0 0.9 1
8
 1 0 0 1 0.5 0 0.5 1
8
 1 0 0 1 0.5 0 0.5 1
8
 1 0 0 1 0.1 0 0.9 1
2
 0.03 1
8
 1 0 0.9 0.1 0.05 0.95 0.045 0.955
8
 1 0 0 1 0.9 0 0.1 1
8
 1 0 0 1 0.05 0 0.95 1
8
 1 0 0 1 0.05 0 0.95 1
8
 1 0 0 1 0.05 0 0.95 1
8
 1 0 0 1 0.9 0 0.1 1
8
 1 0 0 1 0.3 0 0.7 1
8
 1 0 0 1 0.1 0 0.9 1
8
 1 0 0 1 0.9 0 0.1 1
8
 1 0 0 1 0.3 0 0.7 1
8
 1 0 0 1 0.05 0 0.95 1
8
 1 0 0 1 0.3 0 0.7 1
8
 1 0 0 1 0.05 0 0.95 1
8
 1 0 0 1 0.05 0 0.95 1
8
 1 0 0 1 0.05 0 0.95 1
8
 1 0 0 1 0.5 0 0.5 1
8
 1 0 0 1 0.3 0 0.7 1
8
 1 0 0 1 0.5 0 0.5 1
8
 1 0 0 1 0.9 0 0.1 1
8
 1 0 0 1 0.05 0 0.95 1
8
 1 0 0 1 0.3 0 0.7 1
8
 1 0 0 1 0.05 0 0.95 1
8
 1 0 0 1 0.05 0 0.95 1
8
 1 0 0 1 0.05 0 0.95 1
8
 1 0 0 1 0.05 0 0.95 1
8
 1 0 0 1 0.5 0 0.5 1
8
 1 0 0 1 0.4 0 0.6 1
8
 1 0 0 1 0.9 0 0.1 1
8
 1 0 0 1 0.5 0 0.5 1
8
 1 0 0 1 0.7 0 0.3 1
8
 1 0 0 1 0.01 0 0.99 1
8
 1 0 0 1 0.9 0 0.1 1
8
 1 0 0 1 0.9 0 0.1 1
8
 1 0 0 1 0.05 0 0.95 1
8
 1 0 0 1 0.4 0 0.6 1
8
 1 0 0 1 0.9 0 0.1 1
8
 1 0 0 1 0.9 0 0.1 1
8
 1 0 0 1 0.75 0 0.25 1
8
 1 0 0 1 0.05 0 0.95 1
8
 1 0 0 1 0.05 0 0.95 1
8
 1 0 0 1 0.3 0 0.7 1
8
 1 0 0 1 0.9 0 0.1 1
8
 1 0 0 1 0.5 0 0.5 1
8
 1 0 0 1 0.9 0 0.1 1
8
 1 0 0 1 0.3 0 0.7 1
8
 1 0 0 1 0.5 0 0.5 1
8
 1 0 0 1 0.05 0 0.95 1
8
 1 0 0 1 0.9 0 0.1 1
8
 1 0 0 1 0.5 0 0.5 1
8
 1 0 0 1 0.9 0 0.1 1
8
 1 0 0 1 0.9 0 0.1 1
8
 1 0 0 1 0.9 0 0.1 1
8
 1 0 0 1 0.05 0 0.95 1
8
 1 0 0 1 0.05 0 0.95 1
8
 1 0 0 1 0.05 0 0.95 1
8
 1 0 0 1 0.05 0 0.95 1
8
 1 0 0 1 0.05 0 0.95 1
8
 1 0 0 1 0.3 0 0.7 1
8
 1 0 0 1 0.05 0 0.95 1
8
 1 0 0 1 0.05 0 0.95 1
8
 1 0 0 1 0.9 0 0.1 1
8
 1 0 0 1 0.3 0 0.7 1
8
 1 0 0 1 0.5 0 0.5 1
8
 1 0 0 1 0.05 0 0.95 1
8
 1 0 0 1 0.1 0 0.9 1
8
 1 0 0 1 0.9 0 0.1 1
8
 1 0 0 1 0.89 0 0.11 1
8
 1 0 0 1 0.05 0 0.95 1
8
 1 0 0 1 0.9 0 0.1 1
8
 1 0 0 1 0.89 0 0.11 1
8
 1 0 0 1 0.05 0 0.95 1
8
 1 0 0 1 0.09 0 0.91 1
8
 1 0 0 1 0.05 0 0.95 1
8
 1 0 0 1 0.02 0 0.98 1
8
 1 0 0 1 0.05 0 0.95 1
8
 1 0 0 1 0.2 0 0.8 1
8
 1 0 0 1 0.05 0 0.95 1
8
 1 0 0 1 0.05 0 0.95 1
8
 1 0 0 1 0.3 0 0.7 1
8
 1 0 0 1 0.05 0 0.95 1
8
 1 0 0 1 0.4 0 0.6 1
8
 1 0 0 1 0.05 0 0.95 1
8
 1 0 0 1 0.05 0 0.95 1
8
 1 0 0 1 0.9 0 0.1 1
8
 1 0 0 1 0.05 0 0.95 1
2
 0.03 1
8
 1 0 0.2 0.8 0.3 0.7 0.06 0.94
2
 0.03 1
8
 1 0 0.57 0.43 0.5 0.5 0.285 0.715
8
 1 0 0 1 0.1 0 0.9 1
8
 1 0 0 1 0 0 1 1
8
 1 0 0 1 0.09 0 0.91 1
8
 1 0 0 1 0.5 0 0.5 1
8
 1 0 0 1 0.1 0 0.9 1
8
 1 0 0 1 0 0 1 1
8
 1 0 0 1 0.5 0 0.5 1
8
 1 0 0 1 0.5 0 0.5 1
8
 1 0 0 1 0.5 0 0.5 1
8
 1 0 0 1 0 0 1 1
8
 1 0 0 1 0.01 0 0.99 1
8
 1 0 0 1 0.5 0 0.5 1
8
 1 0 0 1 0.5 0 0.5 1
8
 1 0 0 1 0 0 1 1
8
 1 0 0 1 0.4 0 0.6 1
8
 1 0 0 1 0.1 0 0.9 1
8
 1 0 0 1 0.01 0 0.99 1
2
 0.03 1
8
 1 0 0 1 0 1 0 1
8
 1 0 0 1 0 0 1 1
8
 1 0 0 1 0 0 1 1
8
 1 0 0 1 0 0 1 1
8
 1 0 0 1 0 0 1 1
8
 1 0 0 1 0 0 1 1
8
 1 0 0 1 0 0 1 1
8
 1 0 0 1 0 0 1 1
8
 1 0 0 1 0 0 1 1
8
 1 0 0 1 0 0 1 1
8
 1 0 0 1 0 0 1 1
8
 1 0 0 1 0 0 1 1
8
 1 0 0 1 0 0 1 1
8
 1 0 0 1 0 0 1 1
8
 1 0 0 1 0 0 1 1
8
 1 0 0 1 0 0 1 1
8
 1 0 0 1 0 0 1 1
8
 1 0 0 1 0 0 1 1
8
 1 0 0 1 0 0 1 1
8
 1 0 0 1 0 0 1 1
8
 1 0 0 1 0 0 1 1
8
 1 0 0 1 0 0 1 1
8
 1 0 0 1 0 0 1 1
8
 1 0 0 1 0 0 1 1
8
 1 0 0 1 0 0 1 1
8
 1 0 0 1 0 0 1 1
8
 1 0 0 1 0 0 1 1
8
 1 0 0 1 0 0 1 1
8
 1 0 0 1 0 0 1 1
8
 1 0 0 1 0 0 1 1
8
 1 0 0 1 0 0 1 1
8
 1 0 0 1 0 0 1 1
8
 1 0 0 1 0 0 1 1
8
 1 0 0 1 0 0 1 1
8
 1 0 0 1 0 0 1 1
8
 1 0 0 1 0 0 1 1
8
 1 0 0 1 0 0 1 1
8
 1 0 0 1 0 0 1 1
8
 1 0 0 1 0 0 1 1
8
 1 0 0 1 0 0 1 1
8
 1 0 0 1 0 0 1 1
8
 1 0 0 1 0 0 1 1
8
 1 0 0 1 0 0 1 1
8
 1 0 0 1 0 0 1 1
8
 1 0 0 1 0 0 1 1
8
 1 0 0 1 0 0 1 1
8
 1 0 0 1 0 0 1 1
8
 1 0 0 1 0 0 1 1
8
 1 0 0 1 0 0 1 1
8
 1 0 0 1 0 0 1 1
8
 1 0 0 1 0 0 1 1
8
 1 0 0 1 0 0 1 1
8
 1 0 0 1 0 0 1 1
8
 1 0 0 1 0 0 1 1
8
 1 0 0 1 0 0 1 1
8
 1 0 0 1 0 0 1 1
8
 1 0 0 1 0 0 1 1
8
 1 0 0 1 0 0 1 1
2
 0.03 1
8
 1 0 0.3 0.7 0.5 0.5 0.15 0.85
8
 1 0 0 1 0 0 1 1
8
 1 0 0 1 0.01 0 0.99 1
2
 0.03 1
8
 1 0 0.2 0.8 0.5 0.5 0.1 0.9
8
 1 0 0 1 0.5 0 0.5 1
8
 1 0 0 1 0.5 0 0.5 1
8
 1 0 0 1 0.5 0 0.5 1
8
 1 0 0 1 0.1 0 0.9 1
8
 1 0 0 1 0.05 0 0.95 1
8
 1 0 0 1 0.5 0 0.5 1
8
 1 0 0 1 0.1 0 0.9 1
8
 1 0 0 1 0.5 0 0.5 1
8
 1 0 0 1 0.01 0 0.99 1
8
 1 0 0 1 0.1 0 0.9 1
8
 1 0 0 1 0.5 0 0.5 1
8
 1 0 0 1 0.1 0 0.9 1
8
 1 0 0 1 0.09 0 0.91 1
8
 1 0 0 1 0.5 0 0.5 1
8
 1 0 0 1 0.5 0 0.5 1
8
 1 0 0 1 0.5 0 0.5 1
8
 1 0 0 1 0.5 0 0.5 1
8
 1 0 0 1 0.2 0 0.8 1
8
 1 0 0 1 0.05 0 0.95 1
8
 1 0 0 1 0.5 0 0.5 1
8
 1 0 0 1 0.5 0 0.5 1
8
 1 0 0 1 0.05 0 0.95 1
8
 1 0 0 1 0.5 0 0.5 1
8
 1 0 0 1 0.5 0 0.5 1
8
 1 0 0 1 0.5 0 0.5 1
8
 1 0 0 1 0.1 0 0.9 1
2
 0.03 1
8
 1 0 0.57 0.43 0.5 0.5 0.285 0.715
8
 1 0 0 1 0.1 0 0.9 1
8
 1 0 0 1 0.01 0 0.99 1
8
 1 0 0 1 0.09 0 0.91 1
8
 1 0 0 1 0.5 0 0.5 1
8
 1 0 0 1 0.1 0 0.9 1
8
 1 0 0 1 0.5 0 0.5 1
8
 1 0 0 1 0.01 0 0.99 1
8
 1 0 0 1 0.5 0 0.5 1
8
 1 0 0 1 0.5 0 0.5 1
8
 1 0 0 1 0.05 0 0.95 1
8
 1 0 0 1 0.01 0 0.99 1
8
 1 0 0 1 0.5 0 0.5 1
8
 1 0 0 1 0.5 0 0.5 1
8
 1 0 0 1 0.01 0 0.99 1
8
 1 0 0 1 0.4 0 0.6 1
8
 1 0 0 1 0.1 0 0.9 1
8
 1 0 0 1 0.01 0 0.99 1
8
 1 0 0 1 0.2 0 0.8 1
2
 0.03 1
8
 1 0 0.5 0.5 0.5 0.5 0.25 0.75
8
 1 0 0 1 0.09 0 0.91 1
8
 1 0 0 1 0.9 0 0.1 1
8
 1 0 0 1 0.5 0 0.5 1
8
 1 0 0 1 0.8 0 0.2 1
8
 1 0 0 1 0.6 0 0.4 1
8
 1 0 0 1 0.5 0 0.5 1
8
 1 0 0 1 0.5 0 0.5 1
8
 1 0 0 1 0.5 0 0.5 1
8
 1 0 0 1 0.5 0 0.5 1
8
 1 0 0 1 0.5 0 0.5 1
8
 1 0 0 1 0.5 0 0.5 1
8
 1 0 0 1 0.5 0 0.5 1
8
 1 0 0 1 0.5 0 0.5 1
8
 1 0 0 1 0.5 0 0.5 1
2
 0.03 1
8
 1 0 0 1 0 1 0 1
8
 1 0 0 1 0 0 1 1
8
 1 0 0 1 0 0 1 1
2
 0.03 1
8
 1 0 0.05 0.95 0.05 0.95 0.0025 0.9975
8
 1 0 0 1 0.05 0 0.95 1
8
 1 0 0 1 0.05 0 0.95 1
8
 1 0 0 1 0.05 0 0.95 1
8
 1 0 0 1 0.05 0 0.95 1
8
 1 0 0 1 0.05 0 0.95 1
8
 1 0 0 1 0.05 0 0.95 1
8
 1 0 0 1 0.05 0 0.95 1
8
 1 0 0 1 0.05 0 0.95 1
8
 1 0 0 1 0.05 0 0.95 1
8
 1 0 0 1 0.05 0 0.95 1
8
 1 0 0 1 0.05 0 0.95 1
8
 1 0 0 1 0.05 0 0.95 1
8
 1 0 0 1 0.05 0 0.95 1
8
 1 0 0 1 0.05 0 0.95 1
8
 1 0 0 1 0.05 0 0.95 1
8
 1 0 0 1 0.05 0 0.95 1
8
 1 0 0 1 0.05 0 0.95 1
8
 1 0 0 1 0.05 0 0.95 1
8
 1 0 0 1 0.05 0 0.95 1
8
 1 0 0 1 0.05 0 0.95 1
8
 1 0 0 1 0.05 0 0.95 1
8
 1 0 0 1 0.05 0 0.95 1
8
 1 0 0 1 0.05 0 0.95 1
8
 1 0 0 1 0.05 0 0.95 1
8
 1 0 0 1 0.05 0 0.95 1
8
 1 0 0 1 0.05 0 0.95 1
8
 1 0 0 1 0.05 0 0.95 1
8
 1 0 0 1 0.05 0 0.95 1
8
 1 0 0 1 0.05 0 0.95 1
8
 1 0 0 1 0.05 0 0.95 1
8
 1 0 0 1 0.05 0 0.95 1
8
 1 0 0 1 0.05 0 0.95 1
8
 1 0 0 1 0.05 0 0.95 1
8
 1 0 0 1 0.05 0 0.95 1
8
 1 0 0 1 0.05 0 0.95 1
8
 1 0 0 1 0.05 0 0.95 1
8
 1 0 0 1 0.05 0 0.95 1
8
 1 0 0 1 0.05 0 0.95 1
8
 1 0 0 1 0.05 0 0.95 1
2
 0.03 1
8
 1 0 0 1 0.9 0.1 0 1
8
 1 0 0 1 0.2 0 0.8 1
8
 1 0 0 1 0.4 0 0.6 1
8
 1 0 0 1 0.5 0 0.5 1
8
 1 0 0 1 0 0 1 1
8
 1 0 0 1 0.9 0 0.1 1
8
 1 0 0 1 0.5 0 0.5 1
8
 1 0 0 1 0.89 0 0.11 1
8
 1 0 0 1 0.5 0 0.5 1
8
 1 0 0 1 0 0 1 1
8
 1 0 0 1 0.89 0 0.11 1
8
 1 0 0 1 0.5 0 0.5 1
8
 1 0 0 1 0.2 0 0.8 1
8
 1 0 0 1 0.4 0 0.6 1
8
 1 0 0 1 0.1 0 0.9 1
8
 1 0 0 1 0.5 0 0.5 1
8
 1 0 0 1 0.5 0 0.5 1
8
 1 0 0 1 0.1 0 0.9 1
8
 1 0 0 1 0 0 1 1
8
 1 0 0 1 0.5 0 0.5 1
8
 1 0 0 1 0.01 0 0.99 1
8
 1 0 0 1 0 0 1 1
8
 1 0 0 1 0 0 1 1
8
 1 0 0 1 0 0 1 1
8
 1 0 0 1 0.5 0 0.5 1
8
 1 0 0 1 0.9 0 0.1 1
8
 1 0 0 1 0.5 0 0.5 1
8
 1 0 0 1 0 0 1 1
8
 1 0 0 1 0.5 0 0.5 1
8
 1 0 0 1 0.9 0 0.1 1
8
 1 0 0 1 0.5 0 0.5 1
8
 1 0 0 1 0.1 0 0.9 1
8
 1 0 0 1 0 0 1 1
8
 1 0 0 1 0.1 0 0.9 1
8
 1 0 0 1 0.5 0 0.5 1
8
 1 0 0 1 0.9 0 0.1 1
8
 1 0 0 1 0.5 0 0.5 1
8
 1 0 0 1 0.5 0 0.5 1
8
 1 0 0 1 0.9 0 0.1 1
8
 1 0 0 1 0.09 0 0.91 1
8
 1 0 0 1 0.5 0 0.5 1
8
 1 0 0 1 0.1 0 0.9 1
8
 1 0 0 1 0.5 0 0.5 1
8
 1 0 0 1 0.5 0 0.5 1
8
 1 0 0 1 0.9 0 0.1 1
8
 1 0 0 1 0.09 0 0.91 1
8
 1 0 0 1 0.5 0 0.5 1
8
 1 0 0 1 0.5 0 0.5 1
8
 1 0 0 1 0 0 1 1
8
 1 0 0 1 0.5 0 0.5 1
8
 1 0 0 1 0 0 1 1
8
 1 0 0 1 0 0 1 1
8
 1 0 0 1 0.5 0 0.5 1
8
 1 0 0 1 0.1 0 0.9 1
8
 1 0 0 1 0.5 0 0.5 1
8
 1 0 0 1 0.57 0 0.43 1
8
 1 0 0 1 0 0 1 1
8
 1 0 0 1 0 0 1 1
8
 1 0 0 1 0.5 0 0.5 1
8
 1 0 0 1 0.5 0 0.5 1
8
 1 0 0 1 0.9 0 0.1 1
8
 1 0 0 1 0 0 1 1
8
 1 0 0 1 0.5 0 0.5 1
8
 1 0 0 1 0.1 0 0.9 1
8
 1 0 0 1 0.5 0 0.5 1
8
 1 0 0 1 0.1 0 0.9 1
8
 1 0 0 1 0.5 0 0.5 1
8
 1 0 0 1 0.4 0 0.6 1
8
 1 0 0 1 0.5 0 0.5 1
8
 1 0 0 1 0 0 1 1
8
 1 0 0 1 0.5 0 0.5 1
8
 1 0 0 1 0.9 0 0.1 1
8
 1 0 0 1 0.5 0 0.5 1
8
 1 0 0 1 0.89 0 0.11 1
8
 1 0 0 1 0.5 0 0.5 1
8
 1 0 0 1 0.5 0 0.5 1
8
 1 0 0 1 0.5 0 0.5 1
8
 1 0 0 1 0.4 0 0.6 1
8
 1 0 0 1 0.5 0 0.5 1
8
 1 0 0 1 0 0 1 1
8
 1 0 0 1 0.1 0 0.9 1
8
 1 0 0 1 0.6 0 0.4 1
8
 1 0 0 1 0.5 0 0.5 1
8
 1 0 0 1 0.1 0 0.9 1
8
 1 0 0 1 0.4 0 0.6 1
8
 1 0 0 1 0.5 0 0.5 1
8
 1 0 0 1 0 0 1 1
8
 1 0 0 1 0 0 1 1
8
 1 0 0 1 0.1 0 0.9 1
8
 1 0 0 1 0.59 0 0.41 1
8
 1 0 0 1 0 0 1 1
8
 1 0 0 1 0.4 0 0.6 1
8
 1 0 0 1 0 0 1 1
8
 1 0 0 1 0.5 0 0.5 1
8
 1 0 0 1 0.9 0 0.1 1
8
 1 0 0 1 0.5 0 0.5 1
8
 1 0 0 1 0 0 1 1
8
 1 0 0 1 0 0 1 1
8
 1 0 0 1 0.9 0 0.1 1
8
 1 0 0 1 0.4 0 0.6 1
8
 1 0 0 1 0.5 0 0.5 1
8
 1 0 0 1 0.1 0 0.9 1
8
 1 0 0 1 0.4 0 0.6 1
8
 1 0 0 1 0 0 1 1
8
 1 0 0 1 0.5 0 0.5 1
8
 1 0 0 1 0.09 0 0.91 1
8
 1 0 0 1 0 0 1 1
8
 1 0 0 1 0 0 1 1
8
 1 0 0 1 0 0 1 1
8
 1 0 0 1 0 0 1 1
8
 1 0 0 1 0 0 1 1
8
 1 0 0 1 0.5 0 0.5 1
8
 1 0 0 1 0.5 0 0.5 1
8
 1 0 0 1 0.5 0 0.5 1
8
 1 0 0 1 0.5 0 0.5 1
8
 1 0 0 1 0.5 0 0.5 1
8
 1 0 0 1 0 0 1 1
8
 1 0 0 1 0.5 0 0.5 1
8
 1 0 0 1 0.4 0 0.6 1
8
 1 0 0 1 0.5 0 0.5 1
8
 1 0 0 1 0.7 0 0.3 1
8
 1 0 0 1 0.5 0 0.5 1
8
 1 0 0 1 0.89 0 0.11 1
8
 1 0 0 1 0.5 0 0.5 1
8
 1 0 0 1 0.9 0 0.1 1
8
 1 0 0 1 0 0 1 1
8
 1 0 0 1 0.9 0 0.1 1
8
 1 0 0 1 0.5 0 0.5 1
8
 1 0 0 1 0.5 0 0.5 1
8
 1 0 0 1 0 0 1 1
8
 1 0 0 1 0.75 0 0.25 1
8
 1 0 0 1 0 0 1 1
8
 1 0 0 1 0.09 0 0.91 1
8
 1 0 0 1 0.5 0 0.5 1
8
 1 0 0 1 0 0 1 1
8
 1 0 0 1 0.5 0 0.5 1
8
 1 0 0 1 0 0 1 1
8
 1 0 0 1 0.9 0 0.1 1
8
 1 0 0 1 0.7 0 0.3 1
8
 1 0 0 1 0.4 0 0.6 1
8
 1 0 0 1 0.5 0 0.5 1
8
 1 0 0 1 0.1 0 0.9 1
8
 1 0 0 1 0 0 1 1
8
 1 0 0 1 0.6 0 0.4 1
8
 1 0 0 1 0.5 0 0.5 1
8
 1 0 0 1 0.4 0 0.6 1
8
 1 0 0 1 0.9 0 0.1 1
8
 1 0 0 1 0.5 0 0.5 1
8
 1 0 0 1 0.9 0 0.1 1
8
 1 0 0 1 0 0 1 1
8
 1 0 0 1 0 0 1 1
8
 1 0 0 1 0.4 0 0.6 1
8
 1 0 0 1 0 0 1 1
8
 1 0 0 1 0.09 0 0.91 1
8
 1 0 0 1 0 0 1 1
8
 1 0 0 1 0.9 0 0.1 1
8
 1 0 0 1 0.5 0 0.5 1
8
 1 0 0 1 0 0 1 1
8
 1 0 0 1 0.9 0 0.1 1
8
 1 0 0 1 0 0 1 1
8
 1 0 0 1 0.9 0 0.1 1
8
 1 0 0 1 0 0 1 1
8
 1 0 0 1 0.05 0 0.95 1
8
 1 0 0 1 0.5 0 0.5 1
8
 1 0 0 1 0.5 0 0.5 1
8
 1 0 0 1 0 0 1 1
8
 1 0 0 1 0.5 0 0.5 1
8
 1 0 0 1 0 0 1 1
8
 1 0 0 1 0.1 0 0.9 1
8
 1 0 0 1 0 0 1 1
8
 1 0 0 1 0.5 0 0.5 1
8
 1 0 0 1 0 0 1 1
8
 1 0 0 1 0 0 1 1
8
 1 0 0 1 0.9 0 0.1 1
8
 1 0 0 1 0.01 0 0.99 1
2
 0.03 1
2
 0.9995 0.0005
2
 0.9999 0.0001
2
 0.99995 5e-05
2
 0.99996 4e-05
2
 0.99968 0.00032
2
 0.999995 5e-06
2
 0.9999 0.0001
2
 0.9986 0.0014
2
 0.99999 1e-05
2
 0.99 0.01
2
 0.99975 0.00025
2
 0.9998 0.0002
2
 0.99999 1e-05
2
 0.99995 5e-05
2
 0.9998 0.0002
2
 0.99991 9e-05
2
 0.9998 0.0002
2
 0.99999 1e-05
2
 0.9999 0.0001
2
 0.9999 0.0001
2
 0.99975 0.00025
2
 0.9999 0.0001
2
 0.9999 0.0001
2
 0.9999 0.0001
2
 0.999999 1e-06
2
 0.99989 0.00011
2
 0.99994 6e-05
2
 0.9999 0.0001
2
 0.9999 0.0001
2
 0.9999 0.0001
2
 0.999913 8.704e-05
2
 0.9998 0.0002
2
 0.99998 2e-05
2
 0.99999 1e-05
2
 0.9999 0.0001
2
 0.99995 5e-05
2
 0.998 0.002
2
 0.99974 0.00026
2
 0.999998 2e-06
2
 0.999999 1e-06
2
 0.99989 0.00011
2
 0.99995 5e-05
2
 0.9999 0.0001
2
 1 1e-07
2
 0.99996 4e-05
2
 0.99982 0.00018
2
 0.9996 0.0004
2
 0.9998 0.0002
2
 0.99996 4e-05
2
 0.99981 0.00019
2
 0.9999 0.0001
2
 0.9999 0.0001
2
 0.99998 2e-05
2
 0.9999 0.0001
2
 0.9999 0.0001
2
 0.9999 0.0001
2
 0.9999 0.0001
2
 0.9982 0.0018
2
 0.99992 8e-05
2
 0.9995 0.0005
2
 0.9999 0.0001
2
 0.99999 1e-05
2
 0.9998 0.0002
2
 0.99998 2e-05
2
 0.99995 5e-05
2
 1 1e-07
2
 0.9996 0.0004
2
 0.99996 4e-05
2
 0.99995 5e-05
2
 0.9999 0.0001
2
 0.9995 0.0005
2
 0.99998 2e-05
2
 0.999973 2.7e-05
2
 0.99995 5e-05
2
 0.99999 1e-05
2
 0.9999 0.0001
2
 0.9999 0.0001
2
 0.9991 0.0009
2
 0.999999 1e-06
2
 0.99985 0.00015
2
 0.9999 0.0001
2
 0.995 0.005
2
 0.99995 5e-05
2
 0.9999 0.0001
2
 0.99985 0.00015
2
 0.9999 0.0001
2
 0.999 0.001
2
 0.99991 9e-05
2
 0.9996 0.0004
2
 0.99998 2e-05
2
 0.999 0.001
2
 0.99999 1e-05
2
 0.9999 0.0001
2
 0.9999 0.0001
2
 0.9998 0.0002
2
 0.9995 0.0005
2
 0.99999 1e-05
2
 0.999997 2.88e-06
2
 0.9995 0.0005
2
 0.99922 0.00078
2
 0.9994 0.0006
2
 0.9994 0.0006
2
 0.9998 0.0002
2
 0.9991 0.0009
2
 0.99993 7e-05
2
 0.9999 0.0001
2
 0.99995 5e-05
2
 0.9998 0.0002
2
 0.9998 0.0002
2
 0.999999 5.2e-07
2
 0.9999 0.0001
2
 0.9998 0.0002
2
 0.9994 0.0006
2
 0.9999 0.0001
2
 0.99999 1e-05
2
 0.99975 0.00025
2
 0.9995 0.0005
2
 0.9999 0.0001
2
 0.9999 0.0001
2
 0.9999 0.0001
2
 0.9995 0.0005
2
 0.9995 0.0005
2
 0.9998 0.0002
2
 0.9998 0.0002
2
 0.9999 0.0001
2
 0.9997 0.0003
2
 0.9995 0.0005
2
 0.99984 0.00016
2
 0.9996 0.0004
2
 0.99993 7e-05
2
 0.9999 0.0001
2
 0.9999 0.0001
2
 0.99997 3e-05
2
 0.999 0.001
2
 0.9999 0.0001
2
 1 1e-07
2
 0.996 0.004
2
 0.9996 0.0004
2
 0.9999 0.0001
2
 0.999 0.001
2
 0.9999 0.0001
2
 0.99995 5e-05
2
 0.99998 2e-05
2
 0.9965 0.0035
2
 0.9999 0.0001
2
 0.9991 0.0009
2
 0.9928 0.0072
2
 0.99996 4e-05
2
 0.9999 0.0001
2
 0.99996 4e-05
2
 0.99985 0.00015
2
 0.9999 0.0001
2
 0.9999 0.0001
2
 0.9999 0.0001
2
 0.999977 2.291e-05
2
 0.99994 6e-05
2
 0.996 0.004
2
 0.999999 1e-06
2
 0.9982 0.0018
2
 0.99989 0.00011
2
 0.9991 0.0009
2
 0.9999 0.0001
2
 0.99995 5e-05
2
 1 4e-07
2
 0.99975 0.00025
2
 0.9988 0.0012
2
 0.99995 5e-05
2
 0.9999 0.0001
2
 0.988 0.012
2
 0.99987 0.00013
2
 0.9999 0.0001
2
 0.9999 0.0001
2
 0.9997 0.0003
2
 0.999999 6.2e-07
2
 0.99995 5e-05
2
 0.9999 0.0001
2
 0.99998 2e-05
2
 0.99974 0.00026
2
 1 1.2e-07
2
 0.998 0.002
2
 0.99996 4e-05
2
 0.9995 0.0005
2
 0.99998 2e-05
2
 0.9996 0.0004
2
 0.997 0.003
2
 0.99998 2e-05
2
 0.99995 5e-05
2
 0.9999 0.0001
2
 0.999997 2.82e-06
2
 0.99998 2e-05
2
 0.9999 0.0001
2
 0.99999 1e-05
2
 0.9999 0.0001
2
 0.9995 0.0005
2
 0.9999 0.0001
2
 0.9999 0.0001
2
 0.9995 0.0005
2
 0.999996 4e-06
2
 1 1.6e-07
2
 0.9999 0.0001
2
 0.9994 0.0006
2
 0.9999 0.0001
2
 0.9999 0.0001
2
 0.9998 0.0002
2
 0.999907 9.332e-05
2
 0.9999 0.0001
2
 0.9999 0.0001
2
 0.9994 0.0006
2
 0.9999 0.0001
2
 0.99989 0.00011
2
 0.99975 0.00025
2
 0.999969 3.12e-05
2
 0.99996 4e-05
2
 0.999999 1e-06
2
 0.9992 0.0008
2
 0.99995 5e-05
2
 0.999992 8e-06
2
 0.99975 0.00025
2
 0.9999 0.0001
2
 0.99975 0.00025
2
 0.9999 0.0001
2
 0.99764 0.00236
2
 0.9999 0.0001
2
 0.99999 1e-05
2
 0.99995 5e-05
2
 0.9999 0.0001
2
 0.99999 1e-05
2
 0.9998 0.0002
2
 0.9994 0.0006
2
 0.99998 2e-05
2
 0.9999 0.0001
2
 0.9999 0.0001
2
 0.9999 0.0001
2
 0.99999 1e-05
2
 0.9995 0.0005
2
 0.9995 0.0005
2
 0.99991 9e-05
2
 0.99991 9e-05
2
 0.9999 0.0001
2
 0.9999 0.0001
2
 0.99995 5e-05
2
 0.99996 4e-05
2
 0.99997 3e-05
2
 0.99991 9e-05
2
 0.99997 3e-05
2
 0.9995 0.0005
2
 0.9999 0.0001
2
 0.99995 5e-05
2
 0.9999 0.0001
2
 0.99994 6e-05
2
 0.9998 0.0002
2
 0.996 0.004
2
 0.9979 0.0021
2
 0.9998 0.0002
2
 0.9999 0.0001
2
 0.99989 0.00011
2
 0.9999 0.0001
2
 0.99999 1e-05
2
 0.999999 1e-06
2
 0.99997 3e-05
2
 0.9999 0.0001
2
 1 1e-07
2
 0.99997 3e-05
2
 0.99992 8e-05
2
 0.99995 5e-05
2
 0.9999 0.0001
2
 0.9995 0.0005
2
 0.99989 0.00011
2
 0.99988 0.00012
2
 0.9999 0.0001
2
 0.997 0.003
2
 0.9999 0.0001
2
 0.99995 5e-05
2
 0.9975 0.0025
2
 0.999999 1e-06
2
 0.9999 0.0001
2
 0.9995 0.0005
2
 0.9999 0.0001
2
 0.999 0.001
2
 0.99997 3e-05
2
 0.9999 0.0001
2
 0.9999 0.0001
2
 0.99999 1e-05
2
 0.9999 0.0001
2
 0.99996 4e-05
2
 0.9995 0.0005
2
 0.9995 0.0005
2
 0.99997 3e-05
2
 0.9999 0.0001
2
 1 1e-07
2
 0.9999 0.0001
2
 0.9999 0.0001
2
 0.999 0.001
2
 0.9998 0.0002
2
 0.9994 0.0006
2
 0.9999 0.0001
2
 0.99997 3e-05
2
 0.99998 2e-05
2
 0.999 0.001
2
 0.9999 0.0001
2
 0.99993 7e-05
1
 1

